graphene
1.0
	2.4549 0.000000000 0.0000000 		! a1 = (a , 0 , 0)
	-1.227445 2.126005764 0.0000000 	! a2 = ( - a /2 , a * sqrt (3) /2 ,0)
	0.000000000 0.000000000 12.0000000 	! a3 = (0 , 0 , c )
C masses = 12.0110
2
Direct
0.00000 0.00000 0.00000
0.33333 0.66667 0.00000